; benchmark generated from python API
(set-info :status unknown)
(declare-fun cell_1_1 () Int)
(declare-fun cell_1_7 () Int)
(declare-fun cell_2_4 () Int)
(declare-fun cell_2_5 () Int)
(declare-fun cell_3_1 () Int)
(declare-fun cell_3_8 () Int)
(declare-fun cell_4_3 () Int)
(declare-fun cell_4_9 () Int)
(declare-fun cell_5_2 () Int)
(declare-fun cell_5_6 () Int)
(declare-fun cell_6_6 () Int)
(declare-fun cell_6_9 () Int)
(declare-fun cell_7_2 () Int)
(declare-fun cell_7_3 () Int)
(declare-fun cell_8_5 () Int)
(declare-fun cell_8_8 () Int)
(declare-fun cell_9_4 () Int)
(declare-fun cell_9_7 () Int)
(declare-fun cell_2_1 () Int)
(declare-fun cell_4_1 () Int)
(declare-fun cell_5_1 () Int)
(declare-fun cell_6_1 () Int)
(declare-fun cell_7_1 () Int)
(declare-fun cell_8_1 () Int)
(declare-fun cell_9_1 () Int)
(declare-fun cell_1_2 () Int)
(declare-fun cell_2_2 () Int)
(declare-fun cell_3_2 () Int)
(declare-fun cell_4_2 () Int)
(declare-fun cell_6_2 () Int)
(declare-fun cell_8_2 () Int)
(declare-fun cell_9_2 () Int)
(declare-fun cell_1_3 () Int)
(declare-fun cell_2_3 () Int)
(declare-fun cell_3_3 () Int)
(declare-fun cell_5_3 () Int)
(declare-fun cell_6_3 () Int)
(declare-fun cell_8_3 () Int)
(declare-fun cell_9_3 () Int)
(declare-fun cell_1_4 () Int)
(declare-fun cell_3_4 () Int)
(declare-fun cell_4_4 () Int)
(declare-fun cell_5_4 () Int)
(declare-fun cell_6_4 () Int)
(declare-fun cell_7_4 () Int)
(declare-fun cell_8_4 () Int)
(declare-fun cell_1_5 () Int)
(declare-fun cell_3_5 () Int)
(declare-fun cell_4_5 () Int)
(declare-fun cell_5_5 () Int)
(declare-fun cell_6_5 () Int)
(declare-fun cell_7_5 () Int)
(declare-fun cell_9_5 () Int)
(declare-fun cell_1_6 () Int)
(declare-fun cell_2_6 () Int)
(declare-fun cell_3_6 () Int)
(declare-fun cell_4_6 () Int)
(declare-fun cell_7_6 () Int)
(declare-fun cell_8_6 () Int)
(declare-fun cell_9_6 () Int)
(declare-fun cell_2_7 () Int)
(declare-fun cell_3_7 () Int)
(declare-fun cell_4_7 () Int)
(declare-fun cell_5_7 () Int)
(declare-fun cell_6_7 () Int)
(declare-fun cell_7_7 () Int)
(declare-fun cell_8_7 () Int)
(declare-fun cell_1_8 () Int)
(declare-fun cell_2_8 () Int)
(declare-fun cell_4_8 () Int)
(declare-fun cell_5_8 () Int)
(declare-fun cell_6_8 () Int)
(declare-fun cell_7_8 () Int)
(declare-fun cell_9_8 () Int)
(declare-fun cell_1_9 () Int)
(declare-fun cell_2_9 () Int)
(declare-fun cell_3_9 () Int)
(declare-fun cell_5_9 () Int)
(declare-fun cell_7_9 () Int)
(declare-fun cell_8_9 () Int)
(declare-fun cell_9_9 () Int)
(assert
 (= cell_1_1 2))
(assert
 (= cell_1_7 1))
(assert
 (= cell_2_4 2))
(assert
 (= cell_2_5 1))
(assert
 (= cell_3_1 1))
(assert
 (= cell_3_8 2))
(assert
 (= cell_4_3 1))
(assert
 (= cell_4_9 2))
(assert
 (= cell_5_2 2))
(assert
 (= cell_5_6 1))
(assert
 (= cell_6_6 2))
(assert
 (= cell_6_9 1))
(assert
 (= cell_7_2 1))
(assert
 (= cell_7_3 2))
(assert
 (= cell_8_5 2))
(assert
 (= cell_8_8 1))
(assert
 (= cell_9_4 1))
(assert
 (= cell_9_7 2))
(assert
 (let (($x1516 (= cell_1_1 2)))
 (or (= cell_1_1 1) $x1516 (= cell_1_1 3) (= cell_1_1 4) (= cell_1_1 5) (= cell_1_1 6) (= cell_1_1 7) (= cell_1_1 8) (= cell_1_1 9))))
(assert
 (let (($x2029 (= cell_2_1 9)))
 (let (($x1259 (= cell_2_1 8)))
 (let (($x1661 (= cell_2_1 7)))
 (let (($x659 (= cell_2_1 6)))
 (let (($x608 (= cell_2_1 5)))
 (let (($x2161 (= cell_2_1 4)))
 (let (($x2357 (= cell_2_1 3)))
 (let (($x782 (= cell_2_1 2)))
 (let (($x2437 (= cell_2_1 1)))
 (or $x2437 $x782 $x2357 $x2161 $x608 $x659 $x1661 $x1259 $x2029)))))))))))
(assert
 (let (($x83 (= cell_3_1 1)))
 (or $x83 (= cell_3_1 2) (= cell_3_1 3) (= cell_3_1 4) (= cell_3_1 5) (= cell_3_1 6) (= cell_3_1 7) (= cell_3_1 8) (= cell_3_1 9))))
(assert
 (let (($x902 (= cell_4_1 9)))
 (let (($x2703 (= cell_4_1 8)))
 (let (($x2605 (= cell_4_1 7)))
 (let (($x668 (= cell_4_1 6)))
 (let (($x777 (= cell_4_1 5)))
 (let (($x1232 (= cell_4_1 4)))
 (let (($x2195 (= cell_4_1 3)))
 (let (($x373 (= cell_4_1 2)))
 (let (($x2019 (= cell_4_1 1)))
 (or $x2019 $x373 $x2195 $x1232 $x777 $x668 $x2605 $x2703 $x902)))))))))))
(assert
 (let (($x1422 (= cell_5_1 9)))
 (let (($x393 (= cell_5_1 8)))
 (let (($x2591 (= cell_5_1 7)))
 (let (($x2807 (= cell_5_1 6)))
 (let (($x767 (= cell_5_1 5)))
 (let (($x645 (= cell_5_1 4)))
 (let (($x1742 (= cell_5_1 3)))
 (let (($x1741 (= cell_5_1 2)))
 (let (($x1525 (= cell_5_1 1)))
 (or $x1525 $x1741 $x1742 $x645 $x767 $x2807 $x2591 $x393 $x1422)))))))))))
(assert
 (let (($x2438 (= cell_6_1 9)))
 (let (($x660 (= cell_6_1 8)))
 (let (($x1224 (= cell_6_1 7)))
 (let (($x1079 (= cell_6_1 6)))
 (let (($x504 (= cell_6_1 5)))
 (let (($x1605 (= cell_6_1 4)))
 (let (($x127 (= cell_6_1 3)))
 (let (($x2886 (= cell_6_1 2)))
 (let (($x409 (= cell_6_1 1)))
 (or $x409 $x2886 $x127 $x1605 $x504 $x1079 $x1224 $x660 $x2438)))))))))))
(assert
 (let (($x201 (= cell_7_1 9)))
 (let (($x677 (= cell_7_1 8)))
 (let (($x418 (= cell_7_1 7)))
 (let (($x786 (= cell_7_1 6)))
 (let (($x78 (= cell_7_1 5)))
 (let (($x2661 (= cell_7_1 4)))
 (let (($x1939 (= cell_7_1 3)))
 (let (($x2276 (= cell_7_1 2)))
 (let (($x1370 (= cell_7_1 1)))
 (or $x1370 $x2276 $x1939 $x2661 $x78 $x786 $x418 $x677 $x201)))))))))))
(assert
 (let (($x2104 (= cell_8_1 9)))
 (let (($x40 (= cell_8_1 8)))
 (let (($x144 (= cell_8_1 7)))
 (let (($x1461 (= cell_8_1 6)))
 (let (($x2549 (= cell_8_1 5)))
 (let (($x678 (= cell_8_1 4)))
 (let (($x508 (= cell_8_1 3)))
 (let (($x2003 (= cell_8_1 2)))
 (let (($x1594 (= cell_8_1 1)))
 (or $x1594 $x2003 $x508 $x678 $x2549 $x1461 $x144 $x40 $x2104)))))))))))
(assert
 (let (($x280 (= cell_9_1 9)))
 (let (($x914 (= cell_9_1 8)))
 (let (($x1526 (= cell_9_1 7)))
 (let (($x2049 (= cell_9_1 6)))
 (let (($x243 (= cell_9_1 5)))
 (let (($x549 (= cell_9_1 4)))
 (let (($x2551 (= cell_9_1 3)))
 (let (($x1374 (= cell_9_1 2)))
 (let (($x1633 (= cell_9_1 1)))
 (or $x1633 $x1374 $x2551 $x549 $x243 $x2049 $x1526 $x914 $x280)))))))))))
(assert
 (let (($x1705 (= cell_1_2 9)))
 (let (($x632 (= cell_1_2 8)))
 (let (($x776 (= cell_1_2 7)))
 (let (($x2060 (= cell_1_2 6)))
 (let (($x548 (= cell_1_2 5)))
 (let (($x795 (= cell_1_2 4)))
 (let (($x1380 (= cell_1_2 3)))
 (let (($x2274 (= cell_1_2 2)))
 (let (($x2030 (= cell_1_2 1)))
 (or $x2030 $x2274 $x1380 $x795 $x548 $x2060 $x776 $x632 $x1705)))))))))))
(assert
 (let (($x265 (= cell_2_2 9)))
 (let (($x1675 (= cell_2_2 8)))
 (let (($x2788 (= cell_2_2 7)))
 (let (($x337 (= cell_2_2 6)))
 (let (($x1861 (= cell_2_2 5)))
 (let (($x1623 (= cell_2_2 4)))
 (let (($x2877 (= cell_2_2 3)))
 (let (($x335 (= cell_2_2 2)))
 (let (($x1873 (= cell_2_2 1)))
 (or $x1873 $x335 $x2877 $x1623 $x1861 $x337 $x2788 $x1675 $x265)))))))))))
(assert
 (let (($x22 (= cell_3_2 9)))
 (let (($x1236 (= cell_3_2 8)))
 (let (($x2248 (= cell_3_2 7)))
 (let (($x1772 (= cell_3_2 6)))
 (let (($x1297 (= cell_3_2 5)))
 (let (($x2331 (= cell_3_2 4)))
 (let (($x538 (= cell_3_2 3)))
 (let (($x2295 (= cell_3_2 2)))
 (let (($x773 (= cell_3_2 1)))
 (or $x773 $x2295 $x538 $x2331 $x1297 $x1772 $x2248 $x1236 $x22)))))))))))
(assert
 (let (($x1534 (= cell_4_2 9)))
 (let (($x1019 (= cell_4_2 8)))
 (let (($x184 (= cell_4_2 7)))
 (let (($x2624 (= cell_4_2 6)))
 (let (($x2529 (= cell_4_2 5)))
 (let (($x973 (= cell_4_2 4)))
 (let (($x1909 (= cell_4_2 3)))
 (let (($x2723 (= cell_4_2 2)))
 (let (($x505 (= cell_4_2 1)))
 (or $x505 $x2723 $x1909 $x973 $x2529 $x2624 $x184 $x1019 $x1534)))))))))))
(assert
 (let (($x291 (= cell_5_2 2)))
 (or (= cell_5_2 1) $x291 (= cell_5_2 3) (= cell_5_2 4) (= cell_5_2 5) (= cell_5_2 6) (= cell_5_2 7) (= cell_5_2 8) (= cell_5_2 9))))
(assert
 (let (($x1182 (= cell_6_2 9)))
 (let (($x389 (= cell_6_2 8)))
 (let (($x1145 (= cell_6_2 7)))
 (let (($x700 (= cell_6_2 6)))
 (let (($x1339 (= cell_6_2 5)))
 (let (($x493 (= cell_6_2 4)))
 (let (($x856 (= cell_6_2 3)))
 (let (($x890 (= cell_6_2 2)))
 (let (($x2156 (= cell_6_2 1)))
 (or $x2156 $x890 $x856 $x493 $x1339 $x700 $x1145 $x389 $x1182)))))))))))
(assert
 (let (($x226 (= cell_7_2 1)))
 (or $x226 (= cell_7_2 2) (= cell_7_2 3) (= cell_7_2 4) (= cell_7_2 5) (= cell_7_2 6) (= cell_7_2 7) (= cell_7_2 8) (= cell_7_2 9))))
(assert
 (let (($x2557 (= cell_8_2 9)))
 (let (($x715 (= cell_8_2 8)))
 (let (($x351 (= cell_8_2 7)))
 (let (($x2356 (= cell_8_2 6)))
 (let (($x2319 (= cell_8_2 5)))
 (let (($x15 (= cell_8_2 4)))
 (let (($x1664 (= cell_8_2 3)))
 (let (($x180 (= cell_8_2 2)))
 (let (($x2520 (= cell_8_2 1)))
 (or $x2520 $x180 $x1664 $x15 $x2319 $x2356 $x351 $x715 $x2557)))))))))))
(assert
 (let (($x1093 (= cell_9_2 9)))
 (let (($x177 (= cell_9_2 8)))
 (let (($x405 (= cell_9_2 7)))
 (let (($x2606 (= cell_9_2 6)))
 (let (($x331 (= cell_9_2 5)))
 (let (($x401 (= cell_9_2 4)))
 (let (($x601 (= cell_9_2 3)))
 (let (($x886 (= cell_9_2 2)))
 (let (($x822 (= cell_9_2 1)))
 (or $x822 $x886 $x601 $x401 $x331 $x2606 $x405 $x177 $x1093)))))))))))
(assert
 (let (($x1654 (= cell_1_3 9)))
 (let (($x2130 (= cell_1_3 8)))
 (let (($x2715 (= cell_1_3 7)))
 (let (($x2469 (= cell_1_3 6)))
 (let (($x153 (= cell_1_3 5)))
 (let (($x2573 (= cell_1_3 4)))
 (let (($x1571 (= cell_1_3 3)))
 (let (($x768 (= cell_1_3 2)))
 (let (($x2611 (= cell_1_3 1)))
 (or $x2611 $x768 $x1571 $x2573 $x153 $x2469 $x2715 $x2130 $x1654)))))))))))
(assert
 (let (($x2424 (= cell_2_3 9)))
 (let (($x899 (= cell_2_3 8)))
 (let (($x791 (= cell_2_3 7)))
 (let (($x2820 (= cell_2_3 6)))
 (let (($x1210 (= cell_2_3 5)))
 (let (($x1223 (= cell_2_3 4)))
 (let (($x2578 (= cell_2_3 3)))
 (let (($x841 (= cell_2_3 2)))
 (let (($x2515 (= cell_2_3 1)))
 (or $x2515 $x841 $x2578 $x1223 $x1210 $x2820 $x791 $x899 $x2424)))))))))))
(assert
 (let (($x2296 (= cell_3_3 9)))
 (let (($x1991 (= cell_3_3 8)))
 (let (($x872 (= cell_3_3 7)))
 (let (($x1072 (= cell_3_3 6)))
 (let (($x518 (= cell_3_3 5)))
 (let (($x1822 (= cell_3_3 4)))
 (let (($x187 (= cell_3_3 3)))
 (let (($x1957 (= cell_3_3 2)))
 (let (($x2623 (= cell_3_3 1)))
 (or $x2623 $x1957 $x187 $x1822 $x518 $x1072 $x872 $x1991 $x2296)))))))))))
(assert
 (let (($x1912 (= cell_4_3 1)))
 (or $x1912 (= cell_4_3 2) (= cell_4_3 3) (= cell_4_3 4) (= cell_4_3 5) (= cell_4_3 6) (= cell_4_3 7) (= cell_4_3 8) (= cell_4_3 9))))
(assert
 (let (($x327 (= cell_5_3 9)))
 (let (($x453 (= cell_5_3 8)))
 (let (($x1956 (= cell_5_3 7)))
 (let (($x581 (= cell_5_3 6)))
 (let (($x2018 (= cell_5_3 5)))
 (let (($x1192 (= cell_5_3 4)))
 (let (($x1710 (= cell_5_3 3)))
 (let (($x395 (= cell_5_3 2)))
 (let (($x1979 (= cell_5_3 1)))
 (or $x1979 $x395 $x1710 $x1192 $x2018 $x581 $x1956 $x453 $x327)))))))))))
(assert
 (let (($x1399 (= cell_6_3 9)))
 (let (($x745 (= cell_6_3 8)))
 (let (($x145 (= cell_6_3 7)))
 (let (($x1806 (= cell_6_3 6)))
 (let (($x1846 (= cell_6_3 5)))
 (let (($x1622 (= cell_6_3 4)))
 (let (($x1057 (= cell_6_3 3)))
 (let (($x1784 (= cell_6_3 2)))
 (let (($x2028 (= cell_6_3 1)))
 (or $x2028 $x1784 $x1057 $x1622 $x1846 $x1806 $x145 $x745 $x1399)))))))))))
(assert
 (let (($x1287 (= cell_7_3 2)))
 (or (= cell_7_3 1) $x1287 (= cell_7_3 3) (= cell_7_3 4) (= cell_7_3 5) (= cell_7_3 6) (= cell_7_3 7) (= cell_7_3 8) (= cell_7_3 9))))
(assert
 (let (($x2794 (= cell_8_3 9)))
 (let (($x1845 (= cell_8_3 8)))
 (let (($x582 (= cell_8_3 7)))
 (let (($x2151 (= cell_8_3 6)))
 (let (($x1214 (= cell_8_3 5)))
 (let (($x340 (= cell_8_3 4)))
 (let (($x164 (= cell_8_3 3)))
 (let (($x1372 (= cell_8_3 2)))
 (let (($x415 (= cell_8_3 1)))
 (or $x415 $x1372 $x164 $x340 $x1214 $x2151 $x582 $x1845 $x2794)))))))))))
(assert
 (let (($x1667 (= cell_9_3 9)))
 (let (($x381 (= cell_9_3 8)))
 (let (($x1831 (= cell_9_3 7)))
 (let (($x309 (= cell_9_3 6)))
 (let (($x2825 (= cell_9_3 5)))
 (let (($x1111 (= cell_9_3 4)))
 (let (($x2614 (= cell_9_3 3)))
 (let (($x714 (= cell_9_3 2)))
 (let (($x1576 (= cell_9_3 1)))
 (or $x1576 $x714 $x2614 $x1111 $x2825 $x309 $x1831 $x381 $x1667)))))))))))
(assert
 (let (($x2326 (= cell_1_4 9)))
 (let (($x1435 (= cell_1_4 8)))
 (let (($x2141 (= cell_1_4 7)))
 (let (($x2068 (= cell_1_4 6)))
 (let (($x1699 (= cell_1_4 5)))
 (let (($x992 (= cell_1_4 4)))
 (let (($x2782 (= cell_1_4 3)))
 (let (($x1332 (= cell_1_4 2)))
 (let (($x654 (= cell_1_4 1)))
 (or $x654 $x1332 $x2782 $x992 $x1699 $x2068 $x2141 $x1435 $x2326)))))))))))
(assert
 (let (($x375 (= cell_2_4 2)))
 (or (= cell_2_4 1) $x375 (= cell_2_4 3) (= cell_2_4 4) (= cell_2_4 5) (= cell_2_4 6) (= cell_2_4 7) (= cell_2_4 8) (= cell_2_4 9))))
(assert
 (let (($x2148 (= cell_3_4 9)))
 (let (($x1685 (= cell_3_4 8)))
 (let (($x2129 (= cell_3_4 7)))
 (let (($x2480 (= cell_3_4 6)))
 (let (($x1282 (= cell_3_4 5)))
 (let (($x113 (= cell_3_4 4)))
 (let (($x53 (= cell_3_4 3)))
 (let (($x2410 (= cell_3_4 2)))
 (let (($x1533 (= cell_3_4 1)))
 (or $x1533 $x2410 $x53 $x113 $x1282 $x2480 $x2129 $x1685 $x2148)))))))))))
(assert
 (let (($x884 (= cell_4_4 9)))
 (let (($x1771 (= cell_4_4 8)))
 (let (($x1789 (= cell_4_4 7)))
 (let (($x2809 (= cell_4_4 6)))
 (let (($x342 (= cell_4_4 5)))
 (let (($x2324 (= cell_4_4 4)))
 (let (($x2642 (= cell_4_4 3)))
 (let (($x2476 (= cell_4_4 2)))
 (let (($x1321 (= cell_4_4 1)))
 (or $x1321 $x2476 $x2642 $x2324 $x342 $x2809 $x1789 $x1771 $x884)))))))))))
(assert
 (let (($x354 (= cell_5_4 9)))
 (let (($x885 (= cell_5_4 8)))
 (let (($x339 (= cell_5_4 7)))
 (let (($x2568 (= cell_5_4 6)))
 (let (($x452 (= cell_5_4 5)))
 (let (($x1090 (= cell_5_4 4)))
 (let (($x2182 (= cell_5_4 3)))
 (let (($x935 (= cell_5_4 2)))
 (let (($x2411 (= cell_5_4 1)))
 (or $x2411 $x935 $x2182 $x1090 $x452 $x2568 $x339 $x885 $x354)))))))))))
(assert
 (let (($x2649 (= cell_6_4 9)))
 (let (($x2779 (= cell_6_4 8)))
 (let (($x2426 (= cell_6_4 7)))
 (let (($x2286 (= cell_6_4 6)))
 (let (($x1482 (= cell_6_4 5)))
 (let (($x363 (= cell_6_4 4)))
 (let (($x2666 (= cell_6_4 3)))
 (let (($x2915 (= cell_6_4 2)))
 (let (($x162 (= cell_6_4 1)))
 (or $x162 $x2915 $x2666 $x363 $x1482 $x2286 $x2426 $x2779 $x2649)))))))))))
(assert
 (let (($x2674 (= cell_7_4 9)))
 (let (($x2868 (= cell_7_4 8)))
 (let (($x867 (= cell_7_4 7)))
 (let (($x347 (= cell_7_4 6)))
 (let (($x597 (= cell_7_4 5)))
 (let (($x1299 (= cell_7_4 4)))
 (let (($x539 (= cell_7_4 3)))
 (let (($x2765 (= cell_7_4 2)))
 (let (($x1222 (= cell_7_4 1)))
 (or $x1222 $x2765 $x539 $x1299 $x597 $x347 $x867 $x2868 $x2674)))))))))))
(assert
 (let (($x1920 (= cell_8_4 9)))
 (let (($x1191 (= cell_8_4 8)))
 (let (($x1078 (= cell_8_4 7)))
 (let (($x218 (= cell_8_4 6)))
 (let (($x1652 (= cell_8_4 5)))
 (let (($x2064 (= cell_8_4 4)))
 (let (($x116 (= cell_8_4 3)))
 (let (($x208 (= cell_8_4 2)))
 (let (($x1535 (= cell_8_4 1)))
 (or $x1535 $x208 $x116 $x2064 $x1652 $x218 $x1078 $x1191 $x1920)))))))))))
(assert
 (let (($x2658 (= cell_9_4 1)))
 (or $x2658 (= cell_9_4 2) (= cell_9_4 3) (= cell_9_4 4) (= cell_9_4 5) (= cell_9_4 6) (= cell_9_4 7) (= cell_9_4 8) (= cell_9_4 9))))
(assert
 (let (($x1555 (= cell_1_5 9)))
 (let (($x391 (= cell_1_5 8)))
 (let (($x636 (= cell_1_5 7)))
 (let (($x2738 (= cell_1_5 6)))
 (let (($x1063 (= cell_1_5 5)))
 (let (($x919 (= cell_1_5 4)))
 (let (($x490 (= cell_1_5 3)))
 (let (($x2927 (= cell_1_5 2)))
 (let (($x2366 (= cell_1_5 1)))
 (or $x2366 $x2927 $x490 $x919 $x1063 $x2738 $x636 $x391 $x1555)))))))))))
(assert
 (let (($x980 (= cell_2_5 1)))
 (or $x980 (= cell_2_5 2) (= cell_2_5 3) (= cell_2_5 4) (= cell_2_5 5) (= cell_2_5 6) (= cell_2_5 7) (= cell_2_5 8) (= cell_2_5 9))))
(assert
 (let (($x2728 (= cell_3_5 9)))
 (let (($x628 (= cell_3_5 8)))
 (let (($x2389 (= cell_3_5 7)))
 (let (($x242 (= cell_3_5 6)))
 (let (($x2776 (= cell_3_5 5)))
 (let (($x1783 (= cell_3_5 4)))
 (let (($x1528 (= cell_3_5 3)))
 (let (($x2808 (= cell_3_5 2)))
 (let (($x2552 (= cell_3_5 1)))
 (or $x2552 $x2808 $x1528 $x1783 $x2776 $x242 $x2389 $x628 $x2728)))))))))))
(assert
 (let (($x2547 (= cell_4_5 9)))
 (let (($x2750 (= cell_4_5 8)))
 (let (($x1483 (= cell_4_5 7)))
 (let (($x2882 (= cell_4_5 6)))
 (let (($x1289 (= cell_4_5 5)))
 (let (($x222 (= cell_4_5 4)))
 (let (($x2143 (= cell_4_5 3)))
 (let (($x2325 (= cell_4_5 2)))
 (let (($x100 (= cell_4_5 1)))
 (or $x100 $x2325 $x2143 $x222 $x1289 $x2882 $x1483 $x2750 $x2547)))))))))))
(assert
 (let (($x2254 (= cell_5_5 9)))
 (let (($x2291 (= cell_5_5 8)))
 (let (($x1913 (= cell_5_5 7)))
 (let (($x1068 (= cell_5_5 6)))
 (let (($x1364 (= cell_5_5 5)))
 (let (($x2841 (= cell_5_5 4)))
 (let (($x1871 (= cell_5_5 3)))
 (let (($x2444 (= cell_5_5 2)))
 (let (($x442 (= cell_5_5 1)))
 (or $x442 $x2444 $x1871 $x2841 $x1364 $x1068 $x1913 $x2291 $x2254)))))))))))
(assert
 (let (($x2704 (= cell_6_5 9)))
 (let (($x920 (= cell_6_5 8)))
 (let (($x2137 (= cell_6_5 7)))
 (let (($x749 (= cell_6_5 6)))
 (let (($x2080 (= cell_6_5 5)))
 (let (($x1350 (= cell_6_5 4)))
 (let (($x2027 (= cell_6_5 3)))
 (let (($x534 (= cell_6_5 2)))
 (let (($x1017 (= cell_6_5 1)))
 (or $x1017 $x534 $x2027 $x1350 $x2080 $x749 $x2137 $x920 $x2704)))))))))))
(assert
 (let (($x609 (= cell_7_5 9)))
 (let (($x2235 (= cell_7_5 8)))
 (let (($x1681 (= cell_7_5 7)))
 (let (($x1852 (= cell_7_5 6)))
 (let (($x1953 (= cell_7_5 5)))
 (let (($x1666 (= cell_7_5 4)))
 (let (($x1416 (= cell_7_5 3)))
 (let (($x1031 (= cell_7_5 2)))
 (let (($x2918 (= cell_7_5 1)))
 (or $x2918 $x1031 $x1416 $x1666 $x1953 $x1852 $x1681 $x2235 $x609)))))))))))
(assert
 (let (($x528 (= cell_8_5 2)))
 (or (= cell_8_5 1) $x528 (= cell_8_5 3) (= cell_8_5 4) (= cell_8_5 5) (= cell_8_5 6) (= cell_8_5 7) (= cell_8_5 8) (= cell_8_5 9))))
(assert
 (let (($x479 (= cell_9_5 9)))
 (let (($x2265 (= cell_9_5 8)))
 (let (($x707 (= cell_9_5 7)))
 (let (($x1209 (= cell_9_5 6)))
 (let (($x2251 (= cell_9_5 5)))
 (let (($x877 (= cell_9_5 4)))
 (let (($x131 (= cell_9_5 3)))
 (let (($x238 (= cell_9_5 2)))
 (let (($x1620 (= cell_9_5 1)))
 (or $x1620 $x238 $x131 $x877 $x2251 $x1209 $x707 $x2265 $x479)))))))))))
(assert
 (let (($x990 (= cell_1_6 9)))
 (let (($x999 (= cell_1_6 8)))
 (let (($x308 (= cell_1_6 7)))
 (let (($x16 (= cell_1_6 6)))
 (let (($x3684 (= cell_1_6 5)))
 (let (($x633 (= cell_1_6 4)))
 (let (($x1388 (= cell_1_6 3)))
 (let (($x1801 (= cell_1_6 2)))
 (let (($x2496 (= cell_1_6 1)))
 (or $x2496 $x1801 $x1388 $x633 $x3684 $x16 $x308 $x999 $x990)))))))))))
(assert
 (let (($x123 (= cell_2_6 9)))
 (let (($x1895 (= cell_2_6 8)))
 (let (($x2859 (= cell_2_6 7)))
 (let (($x2035 (= cell_2_6 6)))
 (let (($x394 (= cell_2_6 5)))
 (let (($x357 (= cell_2_6 4)))
 (let (($x2914 (= cell_2_6 3)))
 (let (($x2434 (= cell_2_6 2)))
 (let (($x1250 (= cell_2_6 1)))
 (or $x1250 $x2434 $x2914 $x357 $x394 $x2035 $x2859 $x1895 $x123)))))))))))
(assert
 (let (($x2294 (= cell_3_6 9)))
 (let (($x2150 (= cell_3_6 8)))
 (let (($x65 (= cell_3_6 7)))
 (let (($x2278 (= cell_3_6 6)))
 (let (($x2625 (= cell_3_6 5)))
 (let (($x2316 (= cell_3_6 4)))
 (let (($x1473 (= cell_3_6 3)))
 (let (($x793 (= cell_3_6 2)))
 (let (($x1375 (= cell_3_6 1)))
 (or $x1375 $x793 $x1473 $x2316 $x2625 $x2278 $x65 $x2150 $x2294)))))))))))
(assert
 (let (($x621 (= cell_4_6 9)))
 (let (($x515 (= cell_4_6 8)))
 (let (($x288 (= cell_4_6 7)))
 (let (($x1892 (= cell_4_6 6)))
 (let (($x2487 (= cell_4_6 5)))
 (let (($x456 (= cell_4_6 4)))
 (let (($x1379 (= cell_4_6 3)))
 (let (($x810 (= cell_4_6 2)))
 (let (($x1050 (= cell_4_6 1)))
 (or $x1050 $x810 $x1379 $x456 $x2487 $x1892 $x288 $x515 $x621)))))))))))
(assert
 (let (($x977 (= cell_5_6 1)))
 (or $x977 (= cell_5_6 2) (= cell_5_6 3) (= cell_5_6 4) (= cell_5_6 5) (= cell_5_6 6) (= cell_5_6 7) (= cell_5_6 8) (= cell_5_6 9))))
(assert
 (let (($x727 (= cell_6_6 2)))
 (or (= cell_6_6 1) $x727 (= cell_6_6 3) (= cell_6_6 4) (= cell_6_6 5) (= cell_6_6 6) (= cell_6_6 7) (= cell_6_6 8) (= cell_6_6 9))))
(assert
 (let (($x1978 (= cell_7_6 9)))
 (let (($x2694 (= cell_7_6 8)))
 (let (($x312 (= cell_7_6 7)))
 (let (($x311 (= cell_7_6 6)))
 (let (($x2382 (= cell_7_6 5)))
 (let (($x348 (= cell_7_6 4)))
 (let (($x297 (= cell_7_6 3)))
 (let (($x266 (= cell_7_6 2)))
 (let (($x1138 (= cell_7_6 1)))
 (or $x1138 $x266 $x297 $x348 $x2382 $x311 $x312 $x2694 $x1978)))))))))))
(assert
 (let (($x1122 (= cell_8_6 9)))
 (let (($x1003 (= cell_8_6 8)))
 (let (($x2494 (= cell_8_6 7)))
 (let (($x1406 (= cell_8_6 6)))
 (let (($x2759 (= cell_8_6 5)))
 (let (($x186 (= cell_8_6 4)))
 (let (($x989 (= cell_8_6 3)))
 (let (($x614 (= cell_8_6 2)))
 (let (($x1536 (= cell_8_6 1)))
 (or $x1536 $x614 $x989 $x186 $x2759 $x1406 $x2494 $x1003 $x1122)))))))))))
(assert
 (let (($x2025 (= cell_9_6 9)))
 (let (($x1423 (= cell_9_6 8)))
 (let (($x1902 (= cell_9_6 7)))
 (let (($x1186 (= cell_9_6 6)))
 (let (($x444 (= cell_9_6 5)))
 (let (($x2236 (= cell_9_6 4)))
 (let (($x1159 (= cell_9_6 3)))
 (let (($x970 (= cell_9_6 2)))
 (let (($x1692 (= cell_9_6 1)))
 (or $x1692 $x970 $x1159 $x2236 $x444 $x1186 $x1902 $x1423 $x2025)))))))))))
(assert
 (let (($x1785 (= cell_1_7 1)))
 (or $x1785 (= cell_1_7 2) (= cell_1_7 3) (= cell_1_7 4) (= cell_1_7 5) (= cell_1_7 6) (= cell_1_7 7) (= cell_1_7 8) (= cell_1_7 9))))
(assert
 (let (($x2381 (= cell_2_7 9)))
 (let (($x800 (= cell_2_7 8)))
 (let (($x2442 (= cell_2_7 7)))
 (let (($x279 (= cell_2_7 6)))
 (let (($x239 (= cell_2_7 5)))
 (let (($x1315 (= cell_2_7 4)))
 (let (($x2610 (= cell_2_7 3)))
 (let (($x1884 (= cell_2_7 2)))
 (let (($x419 (= cell_2_7 1)))
 (or $x419 $x1884 $x2610 $x1315 $x239 $x279 $x2442 $x800 $x2381)))))))))))
(assert
 (let (($x1162 (= cell_3_7 9)))
 (let (($x2584 (= cell_3_7 8)))
 (let (($x301 (= cell_3_7 7)))
 (let (($x49 (= cell_3_7 6)))
 (let (($x450 (= cell_3_7 5)))
 (let (($x603 (= cell_3_7 4)))
 (let (($x2481 (= cell_3_7 3)))
 (let (($x385 (= cell_3_7 2)))
 (let (($x448 (= cell_3_7 1)))
 (or $x448 $x385 $x2481 $x603 $x450 $x49 $x301 $x2584 $x1162)))))))))))
(assert
 (let (($x2280 (= cell_4_7 9)))
 (let (($x1829 (= cell_4_7 8)))
 (let (($x956 (= cell_4_7 7)))
 (let (($x1876 (= cell_4_7 6)))
 (let (($x1530 (= cell_4_7 5)))
 (let (($x224 (= cell_4_7 4)))
 (let (($x261 (= cell_4_7 3)))
 (let (($x1154 (= cell_4_7 2)))
 (let (($x1235 (= cell_4_7 1)))
 (or $x1235 $x1154 $x261 $x224 $x1530 $x1876 $x956 $x1829 $x2280)))))))))))
(assert
 (let (($x2393 (= cell_5_7 9)))
 (let (($x1160 (= cell_5_7 8)))
 (let (($x2855 (= cell_5_7 7)))
 (let (($x2687 (= cell_5_7 6)))
 (let (($x1474 (= cell_5_7 5)))
 (let (($x1002 (= cell_5_7 4)))
 (let (($x2181 (= cell_5_7 3)))
 (let (($x2786 (= cell_5_7 2)))
 (let (($x1645 (= cell_5_7 1)))
 (or $x1645 $x2786 $x2181 $x1002 $x1474 $x2687 $x2855 $x1160 $x2393)))))))))))
(assert
 (let (($x1828 (= cell_6_7 9)))
 (let (($x1280 (= cell_6_7 8)))
 (let (($x176 (= cell_6_7 7)))
 (let (($x576 (= cell_6_7 6)))
 (let (($x766 (= cell_6_7 5)))
 (let (($x2069 (= cell_6_7 4)))
 (let (($x634 (= cell_6_7 3)))
 (let (($x82 (= cell_6_7 2)))
 (let (($x1540 (= cell_6_7 1)))
 (or $x1540 $x82 $x634 $x2069 $x766 $x576 $x176 $x1280 $x1828)))))))))))
(assert
 (let (($x861 (= cell_7_7 9)))
 (let (($x422 (= cell_7_7 8)))
 (let (($x987 (= cell_7_7 7)))
 (let (($x1470 (= cell_7_7 6)))
 (let (($x1587 (= cell_7_7 5)))
 (let (($x2013 (= cell_7_7 4)))
 (let (($x1302 (= cell_7_7 3)))
 (let (($x616 (= cell_7_7 2)))
 (let (($x1773 (= cell_7_7 1)))
 (or $x1773 $x616 $x1302 $x2013 $x1587 $x1470 $x987 $x422 $x861)))))))))))
(assert
 (let (($x996 (= cell_8_7 9)))
 (let (($x1466 (= cell_8_7 8)))
 (let (($x2847 (= cell_8_7 7)))
 (let (($x1146 (= cell_8_7 6)))
 (let (($x888 (= cell_8_7 5)))
 (let (($x1690 (= cell_8_7 4)))
 (let (($x732 (= cell_8_7 3)))
 (let (($x1812 (= cell_8_7 2)))
 (let (($x1144 (= cell_8_7 1)))
 (or $x1144 $x1812 $x732 $x1690 $x888 $x1146 $x2847 $x1466 $x996)))))))))))
(assert
 (let (($x602 (= cell_9_7 2)))
 (or (= cell_9_7 1) $x602 (= cell_9_7 3) (= cell_9_7 4) (= cell_9_7 5) (= cell_9_7 6) (= cell_9_7 7) (= cell_9_7 8) (= cell_9_7 9))))
(assert
 (let (($x1835 (= cell_1_8 9)))
 (let (($x1044 (= cell_1_8 8)))
 (let (($x298 (= cell_1_8 7)))
 (let (($x2458 (= cell_1_8 6)))
 (let (($x1521 (= cell_1_8 5)))
 (let (($x2418 (= cell_1_8 4)))
 (let (($x502 (= cell_1_8 3)))
 (let (($x870 (= cell_1_8 2)))
 (let (($x696 (= cell_1_8 1)))
 (or $x696 $x870 $x502 $x2418 $x1521 $x2458 $x298 $x1044 $x1835)))))))))))
(assert
 (let (($x2563 (= cell_2_8 9)))
 (let (($x1051 (= cell_2_8 8)))
 (let (($x304 (= cell_2_8 7)))
 (let (($x1935 (= cell_2_8 6)))
 (let (($x2579 (= cell_2_8 5)))
 (let (($x562 (= cell_2_8 4)))
 (let (($x2226 (= cell_2_8 3)))
 (let (($x2303 (= cell_2_8 2)))
 (let (($x1862 (= cell_2_8 1)))
 (or $x1862 $x2303 $x2226 $x562 $x2579 $x1935 $x304 $x1051 $x2563)))))))))))
(assert
 (let (($x1558 (= cell_3_8 2)))
 (or (= cell_3_8 1) $x1558 (= cell_3_8 3) (= cell_3_8 4) (= cell_3_8 5) (= cell_3_8 6) (= cell_3_8 7) (= cell_3_8 8) (= cell_3_8 9))))
(assert
 (let (($x151 (= cell_4_8 9)))
 (let (($x114 (= cell_4_8 8)))
 (let (($x2749 (= cell_4_8 7)))
 (let (($x965 (= cell_4_8 6)))
 (let (($x1261 (= cell_4_8 5)))
 (let (($x1626 (= cell_4_8 4)))
 (let (($x1110 (= cell_4_8 3)))
 (let (($x1562 (= cell_4_8 2)))
 (let (($x216 (= cell_4_8 1)))
 (or $x216 $x1562 $x1110 $x1626 $x1261 $x965 $x2749 $x114 $x151)))))))))))
(assert
 (let (($x56 (= cell_5_8 9)))
 (let (($x1581 (= cell_5_8 8)))
 (let (($x1197 (= cell_5_8 7)))
 (let (($x2040 (= cell_5_8 6)))
 (let (($x1670 (= cell_5_8 5)))
 (let (($x73 (= cell_5_8 4)))
 (let (($x2048 (= cell_5_8 3)))
 (let (($x2499 (= cell_5_8 2)))
 (let (($x797 (= cell_5_8 1)))
 (or $x797 $x2499 $x2048 $x73 $x1670 $x2040 $x1197 $x1581 $x56)))))))))))
(assert
 (let (($x513 (= cell_6_8 9)))
 (let (($x1998 (= cell_6_8 8)))
 (let (($x462 (= cell_6_8 7)))
 (let (($x303 (= cell_6_8 6)))
 (let (($x1281 (= cell_6_8 5)))
 (let (($x2224 (= cell_6_8 4)))
 (let (($x1101 (= cell_6_8 3)))
 (let (($x1183 (= cell_6_8 2)))
 (let (($x655 (= cell_6_8 1)))
 (or $x655 $x1183 $x1101 $x2224 $x1281 $x303 $x462 $x1998 $x513)))))))))))
(assert
 (let (($x1627 (= cell_7_8 9)))
 (let (($x1597 (= cell_7_8 8)))
 (let (($x2554 (= cell_7_8 7)))
 (let (($x2507 (= cell_7_8 6)))
 (let (($x1485 (= cell_7_8 5)))
 (let (($x1237 (= cell_7_8 4)))
 (let (($x2145 (= cell_7_8 3)))
 (let (($x1945 (= cell_7_8 2)))
 (let (($x485 (= cell_7_8 1)))
 (or $x485 $x1945 $x2145 $x1237 $x1485 $x2507 $x2554 $x1597 $x1627)))))))))))
(assert
 (let (($x39 (= cell_8_8 1)))
 (or $x39 (= cell_8_8 2) (= cell_8_8 3) (= cell_8_8 4) (= cell_8_8 5) (= cell_8_8 6) (= cell_8_8 7) (= cell_8_8 8) (= cell_8_8 9))))
(assert
 (let (($x758 (= cell_9_8 2)))
 (let (($x1746 (= cell_9_8 1)))
 (or $x1746 $x758 (= cell_9_8 3) (= cell_9_8 4) (= cell_9_8 5) (= cell_9_8 6) (= cell_9_8 7) (= cell_9_8 8) (= cell_9_8 9)))))
(assert
 (let (($x537 (= cell_1_9 9)))
 (let (($x733 (= cell_1_9 8)))
 (let (($x1949 (= cell_1_9 7)))
 (let (($x2467 (= cell_1_9 6)))
 (let (($x374 (= cell_1_9 5)))
 (let (($x563 (= cell_1_9 4)))
 (let (($x704 (= cell_1_9 3)))
 (let (($x1420 (= cell_1_9 2)))
 (let (($x260 (= cell_1_9 1)))
 (or $x260 $x1420 $x704 $x563 $x374 $x2467 $x1949 $x733 $x537)))))))))))
(assert
 (let (($x1757 (= cell_2_9 9)))
 (let (($x1319 (= cell_2_9 8)))
 (let (($x2586 (= cell_2_9 7)))
 (let (($x1570 (= cell_2_9 6)))
 (let (($x922 (= cell_2_9 5)))
 (let (($x2892 (= cell_2_9 4)))
 (let (($x828 (= cell_2_9 3)))
 (let (($x1240 (= cell_2_9 2)))
 (let (($x1907 (= cell_2_9 1)))
 (or $x1907 $x1240 $x828 $x2892 $x922 $x1570 $x2586 $x1319 $x1757)))))))))))
(assert
 (let (($x38 (= cell_3_9 9)))
 (let (($x706 (= cell_3_9 8)))
 (let (($x1734 (= cell_3_9 7)))
 (let (($x961 (= cell_3_9 6)))
 (let (($x483 (= cell_3_9 5)))
 (let (($x236 (= cell_3_9 4)))
 (let (($x571 (= cell_3_9 3)))
 (let (($x1865 (= cell_3_9 2)))
 (let (($x908 (= cell_3_9 1)))
 (or $x908 $x1865 $x571 $x236 $x483 $x961 $x1734 $x706 $x38)))))))))))
(assert
 (let (($x2637 (= cell_4_9 2)))
 (or (= cell_4_9 1) $x2637 (= cell_4_9 3) (= cell_4_9 4) (= cell_4_9 5) (= cell_4_9 6) (= cell_4_9 7) (= cell_4_9 8) (= cell_4_9 9))))
(assert
 (let (($x1242 (= cell_5_9 9)))
 (let (($x1588 (= cell_5_9 8)))
 (let (($x1592 (= cell_5_9 7)))
 (let (($x1511 (= cell_5_9 6)))
 (let (($x2521 (= cell_5_9 5)))
 (let (($x1046 (= cell_5_9 4)))
 (let (($x1754 (= cell_5_9 3)))
 (let (($x169 (= cell_5_9 2)))
 (let (($x2511 (= cell_5_9 1)))
 (or $x2511 $x169 $x1754 $x1046 $x2521 $x1511 $x1592 $x1588 $x1242)))))))))))
(assert
 (let (($x729 (= cell_6_9 1)))
 (or $x729 (= cell_6_9 2) (= cell_6_9 3) (= cell_6_9 4) (= cell_6_9 5) (= cell_6_9 6) (= cell_6_9 7) (= cell_6_9 8) (= cell_6_9 9))))
(assert
 (let (($x2560 (= cell_7_9 9)))
 (let (($x434 (= cell_7_9 8)))
 (let (($x978 (= cell_7_9 7)))
 (let (($x115 (= cell_7_9 6)))
 (let (($x2797 (= cell_7_9 5)))
 (let (($x1432 (= cell_7_9 4)))
 (let (($x431 (= cell_7_9 3)))
 (let (($x99 (= cell_7_9 2)))
 (let (($x323 (= cell_7_9 1)))
 (or $x323 $x99 $x431 $x1432 $x2797 $x115 $x978 $x434 $x2560)))))))))))
(assert
 (let (($x868 (= cell_8_9 9)))
 (let (($x2258 (= cell_8_9 8)))
 (let (($x1659 (= cell_8_9 7)))
 (let (($x1365 (= cell_8_9 6)))
 (let (($x842 (= cell_8_9 5)))
 (let (($x284 (= cell_8_9 4)))
 (let (($x951 (= cell_8_9 3)))
 (let (($x821 (= cell_8_9 2)))
 (let (($x2524 (= cell_8_9 1)))
 (or $x2524 $x821 $x951 $x284 $x842 $x1365 $x1659 $x2258 $x868)))))))))))
(assert
 (let (($x2544 (= cell_9_9 2)))
 (let (($x2139 (= cell_9_9 1)))
 (or $x2139 $x2544 (= cell_9_9 3) (= cell_9_9 4) (= cell_9_9 5) (= cell_9_9 6) (= cell_9_9 7) (= cell_9_9 8) (= cell_9_9 9)))))
(assert
 (and (distinct cell_1_1 cell_1_2 cell_1_3 cell_1_4 cell_1_5 cell_1_6 cell_1_7 cell_1_8 cell_1_9) true))
(assert
 (and (distinct cell_2_1 cell_2_2 cell_2_3 cell_2_4 cell_2_5 cell_2_6 cell_2_7 cell_2_8 cell_2_9) true))
(assert
 (and (distinct cell_3_1 cell_3_2 cell_3_3 cell_3_4 cell_3_5 cell_3_6 cell_3_7 cell_3_8 cell_3_9) true))
(assert
 (and (distinct cell_4_1 cell_4_2 cell_4_3 cell_4_4 cell_4_5 cell_4_6 cell_4_7 cell_4_8 cell_4_9) true))
(assert
 (and (distinct cell_5_1 cell_5_2 cell_5_3 cell_5_4 cell_5_5 cell_5_6 cell_5_7 cell_5_8 cell_5_9) true))
(assert
 (and (distinct cell_6_1 cell_6_2 cell_6_3 cell_6_4 cell_6_5 cell_6_6 cell_6_7 cell_6_8 cell_6_9) true))
(assert
 (and (distinct cell_7_1 cell_7_2 cell_7_3 cell_7_4 cell_7_5 cell_7_6 cell_7_7 cell_7_8 cell_7_9) true))
(assert
 (and (distinct cell_8_1 cell_8_2 cell_8_3 cell_8_4 cell_8_5 cell_8_6 cell_8_7 cell_8_8 cell_8_9) true))
(assert
 (and (distinct cell_9_1 cell_9_2 cell_9_3 cell_9_4 cell_9_5 cell_9_6 cell_9_7 cell_9_8 cell_9_9) true))
(assert
 (and (distinct cell_1_1 cell_2_1 cell_3_1 cell_4_1 cell_5_1 cell_6_1 cell_7_1 cell_8_1 cell_9_1) true))
(assert
 (and (distinct cell_1_2 cell_2_2 cell_3_2 cell_4_2 cell_5_2 cell_6_2 cell_7_2 cell_8_2 cell_9_2) true))
(assert
 (and (distinct cell_1_3 cell_2_3 cell_3_3 cell_4_3 cell_5_3 cell_6_3 cell_7_3 cell_8_3 cell_9_3) true))
(assert
 (and (distinct cell_1_4 cell_2_4 cell_3_4 cell_4_4 cell_5_4 cell_6_4 cell_7_4 cell_8_4 cell_9_4) true))
(assert
 (and (distinct cell_1_5 cell_2_5 cell_3_5 cell_4_5 cell_5_5 cell_6_5 cell_7_5 cell_8_5 cell_9_5) true))
(assert
 (and (distinct cell_1_6 cell_2_6 cell_3_6 cell_4_6 cell_5_6 cell_6_6 cell_7_6 cell_8_6 cell_9_6) true))
(assert
 (and (distinct cell_1_7 cell_2_7 cell_3_7 cell_4_7 cell_5_7 cell_6_7 cell_7_7 cell_8_7 cell_9_7) true))
(assert
 (and (distinct cell_1_8 cell_2_8 cell_3_8 cell_4_8 cell_5_8 cell_6_8 cell_7_8 cell_8_8 cell_9_8) true))
(assert
 (and (distinct cell_1_9 cell_2_9 cell_3_9 cell_4_9 cell_5_9 cell_6_9 cell_7_9 cell_8_9 cell_9_9) true))
(assert
 (and (distinct cell_1_1 cell_1_2 cell_1_3 cell_2_1 cell_2_2 cell_2_3 cell_3_1 cell_3_2 cell_3_3) true))
(assert
 (and (distinct cell_1_4 cell_1_5 cell_1_6 cell_2_4 cell_2_5 cell_2_6 cell_3_4 cell_3_5 cell_3_6) true))
(assert
 (and (distinct cell_1_7 cell_1_8 cell_1_9 cell_2_7 cell_2_8 cell_2_9 cell_3_7 cell_3_8 cell_3_9) true))
(assert
 (and (distinct cell_4_1 cell_4_2 cell_4_3 cell_5_1 cell_5_2 cell_5_3 cell_6_1 cell_6_2 cell_6_3) true))
(assert
 (and (distinct cell_4_4 cell_4_5 cell_4_6 cell_5_4 cell_5_5 cell_5_6 cell_6_4 cell_6_5 cell_6_6) true))
(assert
 (and (distinct cell_4_7 cell_4_8 cell_4_9 cell_5_7 cell_5_8 cell_5_9 cell_6_7 cell_6_8 cell_6_9) true))
(assert
 (and (distinct cell_7_1 cell_7_2 cell_7_3 cell_8_1 cell_8_2 cell_8_3 cell_9_1 cell_9_2 cell_9_3) true))
(assert
 (and (distinct cell_7_4 cell_7_5 cell_7_6 cell_8_4 cell_8_5 cell_8_6 cell_9_4 cell_9_5 cell_9_6) true))
(assert
 (and (distinct cell_7_7 cell_7_8 cell_7_9 cell_8_7 cell_8_8 cell_8_9 cell_9_7 cell_9_8 cell_9_9) true))
(assert
 (let (($x2329 (and (distinct cell_5_9 cell_6_8 cell_7_7 cell_8_6) true)))
 (let (($x2634 (and (distinct cell_2_9 cell_3_8 cell_4_7 cell_5_6 cell_6_5 cell_7_4 cell_8_3 cell_9_2) true)))
 (let (($x2468 (and (distinct cell_1_8 cell_2_7 cell_3_6 cell_4_5 cell_5_4 cell_6_3 cell_7_2 cell_8_1) true)))
 (let (($x2284 (and (distinct cell_1_5 cell_2_4 cell_3_3 cell_4_2) true)))
 (let (($x1469 (and (distinct cell_5_1 cell_6_2 cell_7_3 cell_8_4) true)))
 (let (($x2639 (and (distinct cell_2_1 cell_3_2 cell_4_3 cell_5_4 cell_6_5 cell_7_6 cell_8_7 cell_9_8) true)))
 (let (($x916 (and (distinct cell_1_2 cell_2_3 cell_3_4 cell_4_5 cell_5_6 cell_6_7 cell_7_8 cell_8_9) true)))
 (let (($x1231 (and (distinct cell_1_5 cell_2_6 cell_3_7 cell_4_8) true)))
 (and $x1231 $x916 $x2639 $x1469 $x2284 $x2468 $x2634 $x2329))))))))))
(assert
 (= cell_1_9 3))
(check-sat)
